<?xml version = "1.0" encoding="UTF-8" standalone="yes"?>
<CPLEXSolution version="1.2">
 <header
   problemName="ILOG.CPLEX"
   solutionName="incumbent"
   solutionIndex="-1"
   objectiveValue="0.050000000000000003"
   solutionTypeValue="3"
   solutionTypeString="primal"
   solutionStatusValue="101"
   solutionStatusString="integer optimal solution"
   solutionMethodString="mip"
   primalFeasible="1"
   dualFeasible="1"
   MIPNodes="0"
   MIPIterations="49"
   writeLevel="1"/>
 <quality
   epInt="1.0000000000000001e-05"
   epRHS="9.9999999999999995e-07"
   maxIntInfeas="0"
   maxPrimalInfeas="0"
   maxX="1"
   maxSlack="17.100000000000001"/>
 <linearConstraints>
  <constraint name="C1_0" index="0" slack="0"/>
  <constraint name="C1_1" index="1" slack="0"/>
  <constraint name="C1_2" index="2" slack="0"/>
  <constraint name="2_0_0_0_0" index="3" slack="-5.9999999999999991"/>
  <constraint name="2_0_0_0_2" index="4" slack="-7.5"/>
  <constraint name="2_0_0_0_4" index="5" slack="-8.6666666666666679"/>
  <constraint name="2_0_0_0_7" index="6" slack="-6.333333333333333"/>
  <constraint name="2_0_0_1_0" index="7" slack="-4.4999999999999991"/>
  <constraint name="2_0_0_1_3" index="8" slack="-3.2333333333333334"/>
  <constraint name="2_0_0_1_5" index="9" slack="-9.0333333333333332"/>
  <constraint name="2_0_1_0_0" index="10" slack="-5.9999999999999991"/>
  <constraint name="2_0_1_0_2" index="11" slack="-7.5"/>
  <constraint name="2_0_1_0_4" index="12" slack="-8.6666666666666679"/>
  <constraint name="2_0_1_0_7" index="13" slack="-6.333333333333333"/>
  <constraint name="2_0_1_1_1" index="14" slack="-4.7999999999999998"/>
  <constraint name="2_0_1_1_3" index="15" slack="-8.0333333333333332"/>
  <constraint name="2_0_1_1_5" index="16" slack="-11.833333333333334"/>
  <constraint name="2_0_2_0_0" index="17" slack="-4.4999999999999991"/>
  <constraint name="2_0_2_0_3" index="18" slack="-3.2333333333333334"/>
  <constraint name="2_0_2_0_5" index="19" slack="-8.6999999999999993"/>
  <constraint name="2_0_2_0_7" index="20" slack="-9.0333333333333332"/>
  <constraint name="2_0_2_1_0" index="21" slack="-5.9999999999999991"/>
  <constraint name="2_0_3_0_0" index="22" slack="-4.4999999999999991"/>
  <constraint name="2_0_3_0_3" index="23" slack="-3.2333333333333334"/>
  <constraint name="2_0_3_0_5" index="24" slack="-8.6999999999999993"/>
  <constraint name="2_0_3_0_7" index="25" slack="-9.0333333333333332"/>
  <constraint name="2_0_3_1_1" index="26" slack="-7.4999999999999991"/>
  <constraint name="2_0_4_0_1" index="27" slack="-4.7999999999999998"/>
  <constraint name="2_0_4_0_3" index="28" slack="-8.0333333333333332"/>
  <constraint name="2_0_4_0_5" index="29" slack="-7.4999999999999991"/>
  <constraint name="2_0_4_0_7" index="30" slack="-11.833333333333334"/>
  <constraint name="2_0_4_1_0" index="31" slack="-7.5"/>
  <constraint name="2_0_4_1_2" index="32" slack="-8.6666666666666679"/>
  <constraint name="2_0_4_1_5" index="33" slack="-6.333333333333333"/>
  <constraint name="2_0_5_0_1" index="34" slack="-0.14900000000000002"/>
  <constraint name="2_0_5_0_3" index="35" slack="-0.34899999999999931"/>
  <constraint name="2_0_5_0_5" index="36" slack="-0.74899999999999967"/>
  <constraint name="2_0_5_0_7" index="37" slack="-1.2490000000000006"/>
  <constraint name="2_0_5_1_1" index="38" slack="-0.19899999999999984"/>
  <constraint name="2_0_5_1_3" index="39" slack="-0.5990000000000002"/>
  <constraint name="2_0_5_1_5" index="40" slack="-1.0989999999999993"/>
  <constraint name="2_1_0_0_0" index="41" slack="-4.333333333333333"/>
  <constraint name="2_1_0_0_3" index="42" slack="-9"/>
  <constraint name="2_1_0_0_5" index="43" slack="-3.3333333333333335"/>
  <constraint name="2_1_0_1_1" index="44" slack="-4.1666666666666661"/>
  <constraint name="2_1_1_0_1" index="45" slack="-0.24899999999999967"/>
  <constraint name="2_1_1_0_3" index="46" slack="-0.24899999999999967"/>
  <constraint name="2_1_1_0_5" index="47" slack="-0.74900000000000011"/>
  <constraint name="2_2_0_0_0" index="48" slack="-6.4999999999999991"/>
  <constraint name="2_2_0_0_2" index="49" slack="-12.6"/>
  <constraint name="2_2_0_0_4" index="50" slack="-5.9166666666666661"/>
  <constraint name="2_2_0_0_6" index="51" slack="-11.75"/>
  <constraint name="2_2_0_0_8" index="52" slack="-6.9999999999999991"/>
  <constraint name="2_2_0_0_11" index="53" slack="-5.9166666666666661"/>
  <constraint name="2_2_0_1_0" index="54" slack="-10.5"/>
  <constraint name="2_2_0_1_2" index="55" slack="-6.6499999999999995"/>
  <constraint name="2_2_0_1_4" index="56" slack="-7.9166666666666652"/>
  <constraint name="2_2_0_1_6" index="57" slack="-15.75"/>
  <constraint name="2_2_0_1_9" index="58" slack="-7.9166666666666652"/>
  <constraint name="2_2_0_2_0" index="59" slack="-11.85"/>
  <constraint name="2_2_0_2_3" index="60" slack="-9.2666666666666675"/>
  <constraint name="2_2_0_2_5" index="61" slack="-17.100000000000001"/>
  <constraint name="2_2_0_2_7" index="62" slack="-9.2666666666666675"/>
  <constraint name="2_2_1_0_0" index="63" slack="-6.4999999999999991"/>
  <constraint name="2_2_1_0_2" index="64" slack="-12.6"/>
  <constraint name="2_2_1_0_4" index="65" slack="-5.9166666666666661"/>
  <constraint name="2_2_1_0_6" index="66" slack="-11.75"/>
  <constraint name="2_2_1_0_8" index="67" slack="-6.9999999999999991"/>
  <constraint name="2_2_1_0_11" index="68" slack="-5.9166666666666661"/>
  <constraint name="2_2_1_1_0" index="69" slack="-11.85"/>
  <constraint name="2_2_1_1_3" index="70" slack="-9.2666666666666675"/>
  <constraint name="2_2_1_1_5" index="71" slack="-17.100000000000001"/>
  <constraint name="2_2_1_1_7" index="72" slack="-6.3999999999999995"/>
  <constraint name="2_2_1_1_9" index="73" slack="-9.2666666666666675"/>
  <constraint name="2_2_2_0_0" index="74" slack="-10.5"/>
  <constraint name="2_2_2_0_2" index="75" slack="-6.6499999999999995"/>
  <constraint name="2_2_2_0_4" index="76" slack="-7.9166666666666652"/>
  <constraint name="2_2_2_0_6" index="77" slack="-15.75"/>
  <constraint name="2_2_2_0_9" index="78" slack="-7.9999999999999991"/>
  <constraint name="2_2_2_0_11" index="79" slack="-7.9166666666666652"/>
  <constraint name="2_2_2_1_0" index="80" slack="-6.4999999999999991"/>
  <constraint name="2_2_2_1_2" index="81" slack="-12.6"/>
  <constraint name="2_2_2_1_4" index="82" slack="-5.9166666666666661"/>
  <constraint name="2_2_2_1_6" index="83" slack="-11.75"/>
  <constraint name="2_2_2_1_9" index="84" slack="-5.9166666666666661"/>
  <constraint name="2_2_2_2_0" index="85" slack="-11.85"/>
  <constraint name="2_2_2_2_3" index="86" slack="-9.2666666666666675"/>
  <constraint name="2_2_2_2_5" index="87" slack="-17.100000000000001"/>
  <constraint name="2_2_2_2_7" index="88" slack="-9.2666666666666675"/>
  <constraint name="2_2_3_0_0" index="89" slack="-1.4990000000000006"/>
  <constraint name="2_2_3_0_2" index="90" slack="-0.12399999999999967"/>
  <constraint name="2_2_3_0_4" index="91" slack="-0.8323333333333327"/>
  <constraint name="2_2_3_0_6" index="92" slack="-3.4990000000000006"/>
  <constraint name="2_2_3_0_9" index="93" slack="-0.49899999999999967"/>
  <constraint name="2_2_3_0_11" index="94" slack="-0.8323333333333327"/>
  <constraint name="2_2_3_1_0" index="95" slack="-1.3740000000000006"/>
  <constraint name="2_2_3_1_3" index="96" slack="-0.70733333333333359"/>
  <constraint name="2_2_3_1_5" index="97" slack="-3.3740000000000006"/>
  <constraint name="2_2_3_1_7" index="98" slack="-0.37400000000000055"/>
  <constraint name="2_2_3_1_9" index="99" slack="-0.70733333333333359"/>
  <constraint name="2_2_4_0_0" index="100" slack="-11.85"/>
  <constraint name="2_2_4_0_3" index="101" slack="-9.2666666666666675"/>
  <constraint name="2_2_4_0_5" index="102" slack="-17.100000000000001"/>
  <constraint name="2_2_4_0_7" index="103" slack="-6.3999999999999995"/>
  <constraint name="2_2_4_0_9" index="104" slack="-13.35"/>
  <constraint name="2_2_4_0_11" index="105" slack="-9.2666666666666675"/>
  <constraint name="2_2_4_1_0" index="106" slack="-6.4999999999999991"/>
  <constraint name="2_2_4_1_2" index="107" slack="-5.9166666666666661"/>
  <constraint name="2_2_4_1_4" index="108" slack="-11.75"/>
  <constraint name="2_2_4_1_6" index="109" slack="-6.9999999999999991"/>
  <constraint name="2_2_4_1_9" index="110" slack="-5.9166666666666661"/>
  <constraint name="2_2_5_0_0" index="111" slack="-11.85"/>
  <constraint name="2_2_5_0_3" index="112" slack="-9.2666666666666675"/>
  <constraint name="2_2_5_0_5" index="113" slack="-17.100000000000001"/>
  <constraint name="2_2_5_0_7" index="114" slack="-6.3999999999999995"/>
  <constraint name="2_2_5_0_9" index="115" slack="-13.35"/>
  <constraint name="2_2_5_0_11" index="116" slack="-9.2666666666666675"/>
  <constraint name="2_2_5_1_0" index="117" slack="-10.5"/>
  <constraint name="2_2_5_1_2" index="118" slack="-7.9166666666666652"/>
  <constraint name="2_2_5_1_4" index="119" slack="-15.75"/>
  <constraint name="2_2_5_1_7" index="120" slack="-7.9999999999999991"/>
  <constraint name="2_2_5_1_9" index="121" slack="-7.9166666666666652"/>
  <constraint name="c123" index="122" slack="0"/>
  <constraint name="c124" index="123" slack="0"/>
  <constraint name="c125" index="124" slack="0"/>
  <constraint name="c126" index="125" slack="0"/>
  <constraint name="c127" index="126" slack="0"/>
  <constraint name="c128" index="127" slack="0"/>
  <constraint name="c129" index="128" slack="-2"/>
  <constraint name="c130" index="129" slack="0"/>
  <constraint name="c131" index="130" slack="0"/>
  <constraint name="c132" index="131" slack="0"/>
 </linearConstraints>
 <variables>
  <variable name="gamma_1_5_0" index="0" value="-0"/>
  <variable name="gamma_1_5_1" index="1" value="-0"/>
  <variable name="gamma_1_5_2" index="2" value="0"/>
  <variable name="gamma_1_4_0" index="3" value="-0"/>
  <variable name="gamma_1_4_1" index="4" value="-0"/>
  <variable name="gamma_1_4_2" index="5" value="0"/>
  <variable name="gamma_1_3_0" index="6" value="-0"/>
  <variable name="gamma_1_3_1" index="7" value="-0"/>
  <variable name="gamma_1_3_2" index="8" value="0"/>
  <variable name="gamma_1_2_0" index="9" value="-0"/>
  <variable name="gamma_1_2_1" index="10" value="-0"/>
  <variable name="gamma_1_2_2" index="11" value="0"/>
  <variable name="gamma_1_1_0" index="12" value="-0"/>
  <variable name="gamma_1_1_1" index="13" value="-0"/>
  <variable name="gamma_1_1_2" index="14" value="0"/>
  <variable name="gamma_1_0_0" index="15" value="-0"/>
  <variable name="gamma_1_0_1" index="16" value="-0"/>
  <variable name="gamma_1_0_2" index="17" value="0"/>
  <variable name="gamma_0_1_0" index="18" value="-0"/>
  <variable name="gamma_0_1_1" index="19" value="-0"/>
  <variable name="gamma_0_0_0" index="20" value="-0"/>
  <variable name="gamma_0_0_1" index="21" value="0"/>
  <variable name="gamma_2_5_0" index="22" value="-0"/>
  <variable name="gamma_2_5_1" index="23" value="-0"/>
  <variable name="gamma_2_5_2" index="24" value="-0"/>
  <variable name="gamma_2_4_0" index="25" value="-0"/>
  <variable name="gamma_2_4_1" index="26" value="-0"/>
  <variable name="gamma_2_4_2" index="27" value="0"/>
  <variable name="gamma_2_3_0" index="28" value="-0"/>
  <variable name="gamma_2_3_1" index="29" value="-0"/>
  <variable name="gamma_2_3_2" index="30" value="-0"/>
  <variable name="gamma_2_2_0" index="31" value="-0"/>
  <variable name="gamma_2_2_1" index="32" value="-0"/>
  <variable name="gamma_2_2_2" index="33" value="0"/>
  <variable name="gamma_2_1_0" index="34" value="-0"/>
  <variable name="gamma_2_1_1" index="35" value="-0"/>
  <variable name="gamma_2_1_2" index="36" value="0"/>
  <variable name="gamma_2_0_0" index="37" value="-0"/>
  <variable name="gamma_2_0_1" index="38" value="-0"/>
  <variable name="gamma_2_0_2" index="39" value="0"/>
  <variable name="a_0" index="40" value="0"/>
  <variable name="a_1" index="41" value="0"/>
  <variable name="a_2" index="42" value="0"/>
  <variable name="a_3" index="43" value="1"/>
  <variable name="a_4" index="44" value="0"/>
  <variable name="s_1_5" index="45" value="0"/>
  <variable name="s_1_4" index="46" value="0"/>
  <variable name="s_1_3" index="47" value="0"/>
  <variable name="s_1_2" index="48" value="0"/>
  <variable name="s_1_1" index="49" value="0"/>
  <variable name="s_1_0" index="50" value="1"/>
  <variable name="s_0_1" index="51" value="0"/>
  <variable name="s_0_0" index="52" value="1"/>
  <variable name="s_2_5" index="53" value="0"/>
  <variable name="s_2_4" index="54" value="0"/>
  <variable name="s_2_3" index="55" value="0"/>
  <variable name="s_2_2" index="56" value="1"/>
  <variable name="s_2_1" index="57" value="0"/>
  <variable name="s_2_0" index="58" value="0"/>
  <variable name="g_0" index="59" value="0"/>
  <variable name="g_1" index="60" value="0"/>
  <variable name="g_2" index="61" value="0"/>
  <variable name="g_3" index="62" value="-1"/>
  <variable name="g_4" index="63" value="0"/>
 </variables>
</CPLEXSolution>
